p cnf 83 13
-17 28 3 49 -4 0
-46 3 7 -20 -62 0
74 32 22 -62 -60 0
-76 -17 81 -83 -3 0
32 3 -1 -82 46 0
-31 -6 54 -51 3 0
-20 -31 36 -4 -52 0
-10 31 2 -19 -65 0
2 79 73 49 -29 0
-43 -82 15 -4 18 0
57 -15 -3 1 -2 0
-69 38 -17 12 -4 0
19 8 18 20 -79 0
